0000000000000000
0000000000000000
0001111110000000
0001111110000000
0000001111000000
0000000111000000
0000000111000000
0000000111000000
0000000111000000
0000011111000000
0000110011000000
0001110011000000
0011100011000000
0011100011000000
0000000000000000
0000000000000000
